c SAT problem
p wcnf 214 528
1 -60 3150 0
1 -75 -3150 0
1 90 -105 0
1 105 3060 0
1 3120 -105 0
1 -3120 -75 0
1 3120 150 0
1 3135 -3136 0
1 3135 75 0
1 -3135 -181 0
1 -3150 166 0
1 3165 136 0
1 3165 60 0
1 -135 136 0
1 150 -165 0
1 150 3090 0
1 -150 3060 0
1 -150 -3135 0
1 -165 -3090 0
1 165 -3060 0
1 165 -150 0
1 165 -3135 0
1 3060 225 0
1 3060 -165 0
1 3060 3061 0
1 -3060 120 0
1 -3060 90 0
1 -3090 -196 0
1 -3090 165 0
1 -3090 -255 0
1 3105 240 0
1 -180 3075 0
1 -180 -181 0
1 195 -3015 0
1 -195 -3000 0
1 210 -3015 0
1 210 3060 0
1 210 3030 0
1 225 3015 0
1 225 3030 0
1 -225 3000 0
1 3000 -225 0
1 3000 165 0
1 3015 3000 0
1 -3030 240 0
1 -3045 -225 0
1 61 -3300 0
1 61 -3315 0
1 -76 75 0
1 76 77 0
1 -91 -106 0
1 91 3255 0
1 -106 -3300 0
1 106 3285 0
1 -106 91 0
1 -3300 151 0
1 -3300 -121 0
1 -3315 61 0
1 3330 -76 0
1 -3330 -182 0
1 3330 152 0
1 3330 -122 0
1 121 136 0
1 121 -3315 0
1 121 -3255 0
1 -136 -135 0
1 136 -3285 0
1 136 3255 0
1 -136 3165 0
1 -151 -3180 0
1 151 -152 0
1 -151 -3225 0
1 166 167 0
1 -3240 -166 0
1 3240 -136 0
1 3270 -256 0
1 -3270 -227 0
1 3270 -3271 0
1 3270 151 0
1 -3270 121 0
1 -3285 197 0
1 3285 166 0
1 3285 3286 0
1 -181 3120 0
1 181 3225 0
1 196 3150 0
1 196 -3120 0
1 -196 -3090 0
1 -196 3135 0
1 -226 -3105 0
1 -226 3121 0
1 -3180 -226 0
1 -3180 -270 0
1 3180 3195 0
1 3210 -316 0
1 3225 226 0
1 -3225 196 0
1 3225 -166 0
1 3225 3210 0
1 240 3136 0
1 240 -3090 0
1 240 3121 0
1 240 3060 0
1 240 -3166 0
1 -255 3180 0
1 255 3090 0
1 270 3151 0
1 -285 -3106 0
1 285 -286 0
1 -3121 270 0
1 3136 3135 0
1 3151 331 0
1 3151 -3152 0
1 -3166 226 0
1 -3166 -240 0
1 3166 255 0
1 -300 3121 0
1 -315 -3091 0
1 -330 3106 0
1 345 -3136 0
1 -345 3106 0
1 345 3031 0
1 -345 -3001 0
1 3061 -300 0
1 3061 -270 0
1 -3061 3060 0
1 3061 345 0
1 -3076 420 0
1 -3076 270 0
1 3091 3106 0
1 3091 330 0
1 3091 -435 0
1 -3091 3092 0
1 3091 -315 0
1 -3106 420 0
1 -3106 361 0
1 3106 -330 0
1 3106 -300 0
1 -360 -3016 0
1 375 3076 0
1 375 -360 0
1 -405 -3061 0
1 405 -3001 0
1 3001 390 0
1 -3001 360 0
1 3001 -375 0
1 -3001 3000 0
1 3016 480 0
1 -3016 -360 0
1 -3016 -3017 0
1 3031 -420 0
1 -3031 360 0
1 3031 495 0
1 -3031 -345 0
1 -3046 -450 0
1 -3046 -390 0
1 3046 3031 0
1 -3046 405 0
1 62 -3525 0
1 62 3510 0
1 77 3525 0
1 -77 -62 0
1 -107 3525 0
1 107 -3465 0
1 107 -3450 0
1 -3480 -107 0
1 -3480 -77 0
1 -3480 122 0
1 -3480 -62 0
1 -3495 3480 0
1 -3495 -137 0
1 3495 -152 0
1 -3495 -92 0
1 3495 62 0
1 3510 92 0
1 3510 -62 0
1 3525 -3510 0
1 -122 -3330 0
1 -122 -3495 0
1 122 3345 0
1 137 136 0
1 152 167 0
1 -152 3345 0
1 -167 3405 0
1 -167 -3450 0
1 3420 -227 0
1 -3420 107 0
1 3420 212 0
1 3435 -122 0
1 3435 -92 0
1 -182 -3360 0
1 182 3345 0
1 182 -3420 0
1 182 -3390 0
1 197 3345 0
1 197 182 0
1 212 3270 0
1 212 3405 0
1 212 3346 0
1 227 -3435 0
1 227 -3420 0
1 -3360 -167 0
1 -3360 302 0
1 3360 -317 0
1 -3375 -3360 0
1 -3375 152 0
1 -3375 -286 0
1 -3390 242 0
1 3390 -212 0
1 3390 287 0
1 -3405 -257 0
1 241 3301 0
1 -241 -240 0
1 -241 3255 0
1 -256 -3301 0
1 256 3240 0
1 -271 3375 0
1 271 -272 0
1 271 286 0
1 286 3331 0
1 286 3210 0
1 -286 -3316 0
1 286 -3225 0
1 -286 285 0
1 3301 -227 0
1 3316 3301 0
1 -3316 -362 0
1 3316 331 0
1 -3316 271 0
1 -3316 -241 0
1 3316 -3317 0
1 -3331 256 0
1 3331 -3330 0
1 3331 -241 0
1 -3331 -3346 0
1 3346 227 0
1 -3346 -3331 0
1 -3346 -317 0
1 301 -3180 0
1 316 -301 0
1 316 -3166 0
1 -346 -3301 0
1 346 -345 0
1 -3241 391 0
1 -3241 -406 0
1 3256 -3241 0
1 -3256 301 0
1 -3256 -271 0
1 3256 436 0
1 -3256 316 0
1 3271 -392 0
1 3271 436 0
1 -3271 -286 0
1 -3286 3285 0
1 361 -3181 0
1 361 3151 0
1 361 -3121 0
1 -361 -376 0
1 376 3136 0
1 376 -3226 0
1 -376 3166 0
1 391 -3137 0
1 -391 390 0
1 -391 3091 0
1 -391 -3167 0
1 -406 3106 0
1 -406 -391 0
1 -406 3196 0
1 -3181 481 0
1 3181 331 0
1 -3181 -376 0
1 -3196 361 0
1 3196 331 0
1 3196 -406 0
1 3196 -346 0
1 -3211 376 0
1 3226 -451 0
1 3226 496 0
1 3226 466 0
1 -3226 436 0
1 3226 346 0
1 3226 -3227 0
1 420 3076 0
1 -420 -421 0
1 -420 -3061 0
1 -435 3076 0
1 -435 3181 0
1 -435 -3152 0
1 -450 -3077 0
1 -450 -465 0
1 450 -3031 0
1 465 3137 0
1 465 -3092 0
1 3122 480 0
1 3122 450 0
1 3122 391 0
1 -3122 -435 0
1 -3122 541 0
1 -3137 3136 0
1 3137 391 0
1 -3137 -495 0
1 -3152 -496 0
1 -3152 435 0
1 3152 406 0
1 -3167 -526 0
1 3167 -496 0
1 -480 -481 0
1 480 495 0
1 -480 -3122 0
1 495 480 0
1 495 3137 0
1 495 -496 0
1 495 3062 0
1 525 -3047 0
1 525 -3017 0
1 -525 526 0
1 -525 -3122 0
1 -525 3002 0
1 525 510 0
1 -3062 3061 0
1 3077 465 0
1 -3077 -3062 0
1 3092 -3107 0
1 3092 -525 0
1 -3092 -495 0
1 3107 450 0
1 -3107 495 0
1 3107 -465 0
1 -540 3077 0
1 -555 -3047 0
1 555 3032 0
1 570 -585 0
1 570 3017 0
1 -585 3002 0
1 -585 -3047 0
1 -585 3017 0
1 3002 -540 0
1 -3017 -555 0
1 -3032 3047 0
1 3032 -570 0
1 3032 540 0
1 3047 -570 0
1 3047 540 0
1 -242 257 0
1 -257 -3481 0
1 -272 3436 0
1 272 271 0
1 -287 272 0
1 3481 -257 0
1 -3481 332 0
1 -3496 -272 0
1 3496 -242 0
1 3496 347 0
1 -3496 317 0
1 -3496 -287 0
1 3526 257 0
1 3526 -3511 0
1 -302 -3360 0
1 -302 3331 0
1 302 301 0
1 302 -3451 0
1 -317 -3346 0
1 -317 3481 0
1 -332 3361 0
1 -347 3331 0
1 -347 -346 0
1 -3421 -302 0
1 -3421 272 0
1 -3421 -407 0
1 -3421 377 0
1 -3436 -272 0
1 3436 -437 0
1 -3436 287 0
1 -3451 332 0
1 -3466 -302 0
1 -3466 -272 0
1 -362 -361 0
1 -362 3436 0
1 377 3301 0
1 -377 3406 0
1 -377 -3376 0
1 377 -3346 0
1 392 3271 0
1 -392 -3391 0
1 -407 392 0
1 407 -3421 0
1 3361 -421 0
1 -3361 362 0
1 3361 -332 0
1 -3361 -347 0
1 -3376 -392 0
1 -3376 -3375 0
1 -3376 466 0
1 3376 -407 0
1 3391 -3392 0
1 3391 362 0
1 3391 437 0
1 -3391 -3390 0
1 3406 482 0
1 3406 3405 0
1 3406 437 0
1 -421 -420 0
1 -421 3211 0
1 421 -3376 0
1 421 3256 0
1 -436 -3361 0
1 -436 -3332 0
1 -436 421 0
1 436 -3271 0
1 -436 -3347 0
1 451 -452 0
1 451 -3317 0
1 466 451 0
1 -466 3376 0
1 466 -3287 0
1 -466 3257 0
1 3302 436 0
1 -3302 -511 0
1 -3317 3302 0
1 3317 -526 0
1 3332 -512 0
1 -3332 482 0
1 3332 451 0
1 -3332 527 0
1 -3347 -512 0
1 -3347 -466 0
1 -481 -3272 0
1 481 3242 0
1 -481 3211 0
1 481 -3317 0
1 481 3167 0
1 496 -3302 0
1 -496 -3272 0
1 496 3196 0
1 511 -3302 0
1 -511 3272 0
1 511 3152 0
1 -511 -3317 0
1 -511 -3197 0
1 -526 -3302 0
1 -526 3152 0
1 -526 -3257 0
1 3242 586 0
1 3242 -556 0
1 3242 526 0
1 -3242 -541 0
1 -3257 3256 0
1 -3272 -526 0
1 3272 572 0
1 3287 3272 0
1 -3287 557 0
1 541 3137 0
1 -541 -556 0
1 541 -3227 0
1 -541 540 0
1 -556 -3137 0
1 556 3107 0
1 556 3122 0
1 -556 -3197 0
1 556 3167 0
1 -571 3107 0
1 -571 586 0
1 571 3257 0
1 -571 -3197 0
1 586 585 0
1 -3197 -3182 0
1 3197 571 0
1 3212 -3227 0
1 -3212 511 0
1 3227 3226 0
1 3227 511 0
1 -422 -3451 0
1 -437 3466 0
1 -437 -3512 0
1 -452 3527 0
1 -452 -3467 0
1 452 3437 0
1 -452 -3482 0
1 -467 -3406 0
1 -467 -466 0
1 467 -3512 0
1 3482 -3497 0
1 3482 -3481 0
1 3497 -422 0
1 -3497 3496 0
1 -3497 -467 0
1 3497 -437 0
1 -3512 422 0
1 3512 -437 0
1 -3527 -422 0
1 -3527 3512 0
1 3527 -3526 0
1 482 3361 0
1 482 3497 0
1 -482 3406 0
1 -497 482 0
1 -497 -3332 0
1 497 3497 0
1 -497 3406 0
1 -497 -3347 0
1 -512 -3467 0
1 512 -3437 0
1 -512 -3377 0
1 3422 557 0
1 3437 -587 0
1 -3437 527 0
1 -3437 3422 0
1 3452 512 0
1 -3452 -482 0
1 -3452 -452 0
1 3452 497 0
1 557 -3437 0
1 -572 -3392 0
1 572 -3362 0
1 572 -3377 0
1 587 -3362 0
1 -587 -3287 0
1 3362 557 0
1 3362 3377 0
1 -3377 -3362 0
1 3377 -557 0
1 3377 -527 0
1 3392 587 0
1 -3392 -557 0
1 3392 527 0
1 3392 -572 0
1 -3392 3391 0
1 3407 -587 0
